p cnf 961 2466
51 -694 -695 0
-51 694 0
-51 695 0
52 -51 -696 0
-52 51 0
-52 696 0
53 -5 -4 0
-53 5 0
-53 4 0
54 -53 -6 0
-54 53 0
-54 6 0
55 -697 -698 0
-55 697 0
-55 698 0
56 -699 -700 0
-56 699 0
-56 700 0
57 -56 -701 0
-57 56 0
-57 701 0
58 -702 -55 0
-58 702 0
-58 55 0
59 -10 -703 0
-59 10 0
-59 703 0
60 -59 -11 0
-60 59 0
-60 11 0
61 -704 -58 0
-61 704 0
-61 58 0
62 -13 -705 0
-62 13 0
-62 705 0
63 -62 -696 0
-63 62 0
-63 696 0
64 -706 -61 0
-64 706 0
-64 61 0
65 -15 -14 0
-65 15 0
-65 14 0
66 -65 -13 0
-66 65 0
-66 13 0
67 -707 -64 0
-67 707 0
-67 64 0
68 -708 -700 0
-68 708 0
-68 700 0
69 -68 -3 0
-69 68 0
-69 3 0
70 -709 -67 0
-70 709 0
-70 67 0
71 -710 -699 0
-71 710 0
-71 699 0
72 -71 -2 0
-72 71 0
-72 2 0
73 -711 -70 0
-73 711 0
-73 70 0
74 -712 -4 0
-74 712 0
-74 4 0
75 -74 -713 0
-75 74 0
-75 713 0
76 -714 -73 0
-76 714 0
-76 73 0
77 -715 -716 0
-77 715 0
-77 716 0
78 -77 -21 0
-78 77 0
-78 21 0
79 -717 -76 0
-79 717 0
-79 76 0
80 -718 -22 0
-80 718 0
-80 22 0
81 -80 -719 0
-81 80 0
-81 719 0
82 -720 -79 0
-82 720 0
-82 79 0
83 -25 -721 0
-83 25 0
-83 721 0
84 -83 -26 0
-84 83 0
-84 26 0
85 -722 -82 0
-85 722 0
-85 82 0
86 -26 -716 0
-86 26 0
-86 716 0
87 -86 -27 0
-87 86 0
-87 27 0
88 -723 -85 0
-88 723 0
-88 85 0
89 -724 -19 0
-89 724 0
-89 19 0
90 -89 -721 0
-90 89 0
-90 721 0
91 -725 -88 0
-91 725 0
-91 88 0
92 -726 -710 0
-92 726 0
-92 710 0
93 -92 -6 0
-93 92 0
-93 6 0
94 -727 -91 0
-94 727 0
-94 91 0
95 -30 -4 0
-95 30 0
-95 4 0
96 -95 -728 0
-96 95 0
-96 728 0
97 -729 -94 0
-97 729 0
-97 94 0
98 -32 -724 0
-98 32 0
-98 724 0
99 -98 -33 0
-99 98 0
-99 33 0
100 -730 -97 0
-100 730 0
-100 97 0
101 -726 -713 0
-101 726 0
-101 713 0
102 -101 -13 0
-102 101 0
-102 13 0
103 -731 -100 0
-103 731 0
-103 100 0
104 -724 -700 0
-104 724 0
-104 700 0
105 -104 -34 0
-105 104 0
-105 34 0
106 -732 -103 0
-106 732 0
-106 103 0
107 -708 -8 0
-107 708 0
-107 8 0
108 -107 -733 0
-108 107 0
-108 733 0
109 -734 -106 0
-109 734 0
-109 106 0
110 -735 -736 0
-110 735 0
-110 736 0
111 -110 -12 0
-111 110 0
-111 12 0
112 -737 -109 0
-112 737 0
-112 109 0
113 -37 -738 0
-113 37 0
-113 738 0
114 -113 -35 0
-114 113 0
-114 35 0
115 -739 -112 0
-115 739 0
-115 112 0
116 -740 -699 0
-116 740 0
-116 699 0
117 -116 -11 0
-117 116 0
-117 11 0
118 -741 -115 0
-118 741 0
-118 115 0
119 -742 -716 0
-119 742 0
-119 716 0
120 -119 -728 0
-120 119 0
-120 728 0
121 -743 -118 0
-121 743 0
-121 118 0
122 -33 -719 0
-122 33 0
-122 719 0
123 -122 -6 0
-123 122 0
-123 6 0
124 -744 -121 0
-124 744 0
-124 121 0
125 -745 -39 0
-125 745 0
-125 39 0
126 -125 -746 0
-126 125 0
-126 746 0
127 -747 -124 0
-127 747 0
-127 124 0
128 -41 -7 0
-128 41 0
-128 7 0
129 -128 -42 0
-129 128 0
-129 42 0
130 -748 -127 0
-130 748 0
-130 127 0
131 -43 -14 0
-131 43 0
-131 14 0
132 -131 -40 0
-132 131 0
-132 40 0
133 -749 -130 0
-133 749 0
-133 130 0
134 -26 -12 0
-134 26 0
-134 12 0
135 -134 -21 0
-135 134 0
-135 21 0
136 -750 -133 0
-136 750 0
-136 133 0
137 -745 -719 0
-137 745 0
-137 719 0
138 -137 -751 0
-138 137 0
-138 751 0
139 -752 -136 0
-139 752 0
-139 136 0
140 -735 -703 0
-140 735 0
-140 703 0
141 -140 -746 0
-141 140 0
-141 746 0
142 -753 -139 0
-142 753 0
-142 139 0
143 -9 -6 0
-143 9 0
-143 6 0
144 -143 -3 0
-144 143 0
-144 3 0
145 -754 -142 0
-145 754 0
-145 142 0
146 -23 -705 0
-146 23 0
-146 705 0
147 -146 -694 0
-147 146 0
-147 694 0
148 -755 -145 0
-148 755 0
-148 145 0
149 -44 -20 0
-149 44 0
-149 20 0
150 -149 -694 0
-150 149 0
-150 694 0
151 -756 -148 0
-151 756 0
-151 148 0
152 -757 -17 0
-152 757 0
-152 17 0
153 -152 -758 0
-153 152 0
-153 758 0
154 -759 -151 0
-154 759 0
-154 151 0
155 -760 -703 0
-155 760 0
-155 703 0
156 -155 -15 0
-156 155 0
-156 15 0
157 -761 -154 0
-157 761 0
-157 154 0
158 -740 -14 0
-158 740 0
-158 14 0
159 -158 -715 0
-159 158 0
-159 715 0
160 -762 -157 0
-160 762 0
-160 157 0
161 -763 -758 0
-161 763 0
-161 758 0
162 -161 -696 0
-162 161 0
-162 696 0
163 -764 -160 0
-163 764 0
-163 160 0
164 -23 -19 0
-164 23 0
-164 19 0
165 -164 -40 0
-165 164 0
-165 40 0
166 -765 -163 0
-166 765 0
-166 163 0
167 -718 -18 0
-167 718 0
-167 18 0
168 -167 -33 0
-168 167 0
-168 33 0
169 -766 -166 0
-169 766 0
-169 166 0
170 -40 -736 0
-170 40 0
-170 736 0
171 -170 -733 0
-171 170 0
-171 733 0
172 -767 -169 0
-172 767 0
-172 169 0
173 -47 -751 0
-173 47 0
-173 751 0
174 -173 -768 0
-174 173 0
-174 768 0
175 -769 -172 0
-175 769 0
-175 172 0
176 -770 -716 0
-176 770 0
-176 716 0
177 -176 -42 0
-177 176 0
-177 42 0
178 -771 -175 0
-178 771 0
-178 175 0
179 -45 -740 0
-179 45 0
-179 740 0
180 -179 -758 0
-180 179 0
-180 758 0
181 -772 -178 0
-181 772 0
-181 178 0
182 -773 -43 0
-182 773 0
-182 43 0
183 -182 -694 0
-183 182 0
-183 694 0
184 -774 -181 0
-184 774 0
-184 181 0
185 -726 -1 0
-185 726 0
-185 1 0
186 -185 -745 0
-186 185 0
-186 745 0
187 -775 -184 0
-187 775 0
-187 184 0
188 -735 -715 0
-188 735 0
-188 715 0
189 -188 -39 0
-189 188 0
-189 39 0
190 -776 -187 0
-190 776 0
-190 187 0
191 -48 -712 0
-191 48 0
-191 712 0
192 -191 -13 0
-192 191 0
-192 13 0
193 -777 -190 0
-193 777 0
-193 190 0
194 -36 -1 0
-194 36 0
-194 1 0
195 -194 -41 0
-195 194 0
-195 41 0
196 -778 -193 0
-196 778 0
-196 193 0
197 -728 -710 0
-197 728 0
-197 710 0
198 -197 -27 0
-198 197 0
-198 27 0
199 -779 -196 0
-199 779 0
-199 196 0
200 -742 -22 0
-200 742 0
-200 22 0
201 -200 -780 0
-201 200 0
-201 780 0
202 -781 -199 0
-202 781 0
-202 199 0
203 -33 -782 0
-203 33 0
-203 782 0
204 -203 -21 0
-204 203 0
-204 21 0
205 -783 -202 0
-205 783 0
-205 202 0
206 -784 -703 0
-206 784 0
-206 703 0
207 -206 -21 0
-207 206 0
-207 21 0
208 -785 -205 0
-208 785 0
-208 205 0
209 -17 -12 0
-209 17 0
-209 12 0
210 -209 -35 0
-210 209 0
-210 35 0
211 -786 -208 0
-211 786 0
-211 208 0
212 -724 -710 0
-212 724 0
-212 710 0
213 -212 -787 0
-213 212 0
-213 787 0
214 -788 -211 0
-214 788 0
-214 211 0
215 -37 -4 0
-215 37 0
-215 4 0
216 -215 -789 0
-216 215 0
-216 789 0
217 -790 -214 0
-217 790 0
-217 214 0
218 -757 -39 0
-218 757 0
-218 39 0
219 -218 -40 0
-219 218 0
-219 40 0
220 -791 -217 0
-220 791 0
-220 217 0
221 -736 -23 0
-221 736 0
-221 23 0
222 -221 -29 0
-222 221 0
-222 29 0
223 -792 -220 0
-223 792 0
-223 220 0
224 -29 -16 0
-224 29 0
-224 16 0
225 -224 -733 0
-225 224 0
-225 733 0
226 -793 -223 0
-226 793 0
-226 223 0
227 -45 -20 0
-227 45 0
-227 20 0
228 -227 -9 0
-228 227 0
-228 9 0
229 -794 -226 0
-229 794 0
-229 226 0
230 -736 -4 0
-230 736 0
-230 4 0
231 -230 -699 0
-231 230 0
-231 699 0
232 -795 -229 0
-232 795 0
-232 229 0
233 -40 -760 0
-233 40 0
-233 760 0
234 -233 -796 0
-234 233 0
-234 796 0
235 -797 -232 0
-235 797 0
-235 232 0
236 -728 -798 0
-236 728 0
-236 798 0
237 -236 -40 0
-237 236 0
-237 40 0
238 -799 -235 0
-238 799 0
-238 235 0
239 -768 -13 0
-239 768 0
-239 13 0
240 -239 -800 0
-240 239 0
-240 800 0
241 -801 -238 0
-241 801 0
-241 238 0
242 -733 -719 0
-242 733 0
-242 719 0
243 -242 -3 0
-243 242 0
-243 3 0
244 -802 -241 0
-244 802 0
-244 241 0
245 -20 -700 0
-245 20 0
-245 700 0
246 -245 -10 0
-246 245 0
-246 10 0
247 -803 -244 0
-247 803 0
-247 244 0
248 -24 -705 0
-248 24 0
-248 705 0
249 -248 -8 0
-249 248 0
-249 8 0
250 -804 -247 0
-250 804 0
-250 247 0
251 -49 -47 0
-251 49 0
-251 47 0
252 -251 -758 0
-252 251 0
-252 758 0
253 -805 -250 0
-253 805 0
-253 250 0
254 -251 -13 0
-254 251 0
-254 13 0
255 -806 -253 0
-255 806 0
-255 253 0
256 -43 -33 0
-256 43 0
-256 33 0
257 -256 -3 0
-257 256 0
-257 3 0
258 -807 -255 0
-258 807 0
-258 255 0
259 -789 -696 0
-259 789 0
-259 696 0
260 -259 -808 0
-260 259 0
-260 808 0
261 -809 -258 0
-261 809 0
-261 258 0
262 -34 -742 0
-262 34 0
-262 742 0
263 -262 -746 0
-263 262 0
-263 746 0
264 -810 -261 0
-264 810 0
-264 261 0
265 -37 -22 0
-265 37 0
-265 22 0
266 -265 -10 0
-266 265 0
-266 10 0
267 -811 -264 0
-267 811 0
-267 264 0
268 -715 -13 0
-268 715 0
-268 13 0
269 -268 -701 0
-269 268 0
-269 701 0
270 -812 -267 0
-270 812 0
-270 267 0
271 -789 -733 0
-271 789 0
-271 733 0
272 -271 -782 0
-272 271 0
-272 782 0
273 -813 -270 0
-273 813 0
-273 270 0
274 -32 -700 0
-274 32 0
-274 700 0
275 -274 -696 0
-275 274 0
-275 696 0
276 -814 -273 0
-276 814 0
-276 273 0
277 -44 -798 0
-277 44 0
-277 798 0
278 -277 -35 0
-278 277 0
-278 35 0
279 -815 -276 0
-279 815 0
-279 276 0
280 -708 -738 0
-280 708 0
-280 738 0
281 -280 -3 0
-281 280 0
-281 3 0
282 -816 -279 0
-282 816 0
-282 279 0
283 -733 -33 0
-283 733 0
-283 33 0
284 -283 -808 0
-284 283 0
-284 808 0
285 -817 -282 0
-285 817 0
-285 282 0
286 -733 -13 0
-286 733 0
-286 13 0
287 -286 -782 0
-287 286 0
-287 782 0
288 -818 -285 0
-288 818 0
-288 285 0
289 -25 -14 0
-289 25 0
-289 14 0
290 -289 -787 0
-290 289 0
-290 787 0
291 -819 -288 0
-291 819 0
-291 288 0
292 -708 -14 0
-292 708 0
-292 14 0
293 -292 -12 0
-293 292 0
-293 12 0
294 -820 -291 0
-294 820 0
-294 291 0
295 -724 -12 0
-295 724 0
-295 12 0
296 -295 -11 0
-296 295 0
-296 11 0
297 -821 -294 0
-297 821 0
-297 294 0
298 -41 -24 0
-298 41 0
-298 24 0
299 -298 -699 0
-299 298 0
-299 699 0
300 -822 -297 0
-300 822 0
-300 297 0
301 -41 -726 0
-301 41 0
-301 726 0
302 -301 -35 0
-302 301 0
-302 35 0
303 -823 -300 0
-303 823 0
-303 300 0
304 -38 -32 0
-304 38 0
-304 32 0
305 -304 -10 0
-305 304 0
-305 10 0
306 -824 -303 0
-306 824 0
-306 303 0
307 -736 -17 0
-307 736 0
-307 17 0
308 -307 -30 0
-308 307 0
-308 30 0
309 -825 -306 0
-309 825 0
-309 306 0
310 -789 -10 0
-310 789 0
-310 10 0
311 -310 -800 0
-311 310 0
-311 800 0
312 -826 -309 0
-312 826 0
-312 309 0
313 -45 -700 0
-313 45 0
-313 700 0
314 -313 -9 0
-314 313 0
-314 9 0
315 -827 -312 0
-315 827 0
-315 312 0
316 -122 -782 0
-316 122 0
-316 782 0
317 -828 -315 0
-317 828 0
-317 315 0
318 -29 -738 0
-318 29 0
-318 738 0
319 -318 -719 0
-319 318 0
-319 719 0
320 -829 -317 0
-320 829 0
-320 317 0
321 -724 -18 0
-321 724 0
-321 18 0
322 -321 -735 0
-322 321 0
-322 735 0
323 -830 -320 0
-323 830 0
-323 320 0
324 -34 -23 0
-324 34 0
-324 23 0
325 -324 -48 0
-325 324 0
-325 48 0
326 -831 -323 0
-326 831 0
-326 323 0
327 -212 -699 0
-327 212 0
-327 699 0
328 -832 -326 0
-328 832 0
-328 326 0
329 -763 -733 0
-329 763 0
-329 733 0
330 -329 -11 0
-330 329 0
-330 11 0
331 -833 -328 0
-331 833 0
-331 328 0
332 -798 -716 0
-332 798 0
-332 716 0
333 -332 -49 0
-333 332 0
-333 49 0
334 -834 -331 0
-334 834 0
-334 331 0
335 -760 -19 0
-335 760 0
-335 19 0
336 -335 -699 0
-336 335 0
-336 699 0
337 -835 -334 0
-337 835 0
-337 334 0
338 -30 -713 0
-338 30 0
-338 713 0
339 -338 -41 0
-339 338 0
-339 41 0
340 -836 -337 0
-340 836 0
-340 337 0
341 -49 -760 0
-341 49 0
-341 760 0
342 -341 -41 0
-342 341 0
-342 41 0
343 -837 -340 0
-343 837 0
-343 340 0
344 -307 -26 0
-344 307 0
-344 26 0
345 -838 -343 0
-345 838 0
-345 343 0
346 -42 -839 0
-346 42 0
-346 839 0
347 -346 -11 0
-347 346 0
-347 11 0
348 -840 -345 0
-348 840 0
-348 345 0
349 -43 -32 0
-349 43 0
-349 32 0
350 -349 -49 0
-350 349 0
-350 49 0
351 -841 -348 0
-351 841 0
-351 348 0
352 -735 -721 0
-352 735 0
-352 721 0
353 -352 -842 0
-353 352 0
-353 842 0
354 -843 -351 0
-354 843 0
-354 351 0
355 -48 -2 0
-355 48 0
-355 2 0
356 -355 -11 0
-356 355 0
-356 11 0
357 -844 -354 0
-357 844 0
-357 354 0
358 -29 -782 0
-358 29 0
-358 782 0
359 -358 -50 0
-359 358 0
-359 50 0
360 -845 -357 0
-360 845 0
-360 357 0
361 -49 -25 0
-361 49 0
-361 25 0
362 -361 -26 0
-362 361 0
-362 26 0
363 -846 -360 0
-363 846 0
-363 360 0
364 -30 -726 0
-364 30 0
-364 726 0
365 -364 -27 0
-365 364 0
-365 27 0
366 -847 -363 0
-366 847 0
-366 363 0
367 -40 -12 0
-367 40 0
-367 12 0
368 -367 -13 0
-368 367 0
-368 13 0
369 -848 -366 0
-369 848 0
-369 366 0
370 -22 -713 0
-370 22 0
-370 713 0
371 -370 -839 0
-371 370 0
-371 839 0
372 -849 -369 0
-372 849 0
-372 369 0
373 -49 -28 0
-373 49 0
-373 28 0
374 -373 -27 0
-374 373 0
-374 27 0
375 -850 -372 0
-375 850 0
-375 372 0
376 -784 -738 0
-376 784 0
-376 738 0
377 -376 -33 0
-377 376 0
-377 33 0
378 -851 -375 0
-378 851 0
-378 375 0
379 -44 -39 0
-379 44 0
-379 39 0
380 -379 -694 0
-380 379 0
-380 694 0
381 -852 -378 0
-381 852 0
-381 378 0
382 -16 -695 0
-382 16 0
-382 695 0
383 -382 -8 0
-383 382 0
-383 8 0
384 -853 -381 0
-384 853 0
-384 381 0
385 -43 -25 0
-385 43 0
-385 25 0
386 -385 -50 0
-386 385 0
-386 50 0
387 -854 -384 0
-387 854 0
-387 384 0
388 -38 -29 0
-388 38 0
-388 29 0
389 -388 -50 0
-389 388 0
-389 50 0
390 -855 -387 0
-390 855 0
-390 387 0
391 -705 -738 0
-391 705 0
-391 738 0
392 -391 -746 0
-392 391 0
-392 746 0
393 -856 -390 0
-393 856 0
-393 390 0
394 -30 -19 0
-394 30 0
-394 19 0
395 -394 -735 0
-395 394 0
-395 735 0
396 -857 -393 0
-396 857 0
-396 393 0
397 -745 -770 0
-397 745 0
-397 770 0
398 -397 -10 0
-398 397 0
-398 10 0
399 -858 -396 0
-399 858 0
-399 396 0
400 -859 -695 0
-400 859 0
-400 695 0
401 -400 -26 0
-401 400 0
-401 26 0
402 -860 -399 0
-402 860 0
-402 399 0
403 -716 -738 0
-403 716 0
-403 738 0
404 -403 -50 0
-404 403 0
-404 50 0
405 -861 -402 0
-405 861 0
-405 402 0
406 -18 -712 0
-406 18 0
-406 712 0
407 -406 -43 0
-407 406 0
-407 43 0
408 -862 -405 0
-408 862 0
-408 405 0
409 -45 -10 0
-409 45 0
-409 10 0
410 -409 -21 0
-410 409 0
-410 21 0
411 -863 -408 0
-411 863 0
-411 408 0
412 -36 -713 0
-412 36 0
-412 713 0
413 -412 -46 0
-413 412 0
-413 46 0
414 -864 -411 0
-414 864 0
-414 411 0
415 -16 -4 0
-415 16 0
-415 4 0
416 -415 -34 0
-416 415 0
-416 34 0
417 -865 -414 0
-417 865 0
-417 414 0
418 -740 -703 0
-418 740 0
-418 703 0
419 -418 -49 0
-419 418 0
-419 49 0
420 -866 -417 0
-420 866 0
-420 417 0
421 -47 -695 0
-421 47 0
-421 695 0
422 -421 -751 0
-422 421 0
-422 751 0
423 -867 -420 0
-423 867 0
-423 420 0
424 -38 -28 0
-424 38 0
-424 28 0
425 -424 -12 0
-425 424 0
-425 12 0
426 -868 -423 0
-426 868 0
-426 423 0
427 -194 -705 0
-427 194 0
-427 705 0
428 -869 -426 0
-428 869 0
-428 426 0
429 -735 -31 0
-429 735 0
-429 31 0
430 -429 -46 0
-430 429 0
-430 46 0
431 -870 -428 0
-431 870 0
-431 428 0
432 -46 -740 0
-432 46 0
-432 740 0
433 -432 -782 0
-433 432 0
-433 782 0
434 -871 -431 0
-434 871 0
-434 431 0
435 -740 -798 0
-435 740 0
-435 798 0
436 -435 -3 0
-436 435 0
-436 3 0
437 -872 -434 0
-437 872 0
-437 434 0
438 -31 -719 0
-438 31 0
-438 719 0
439 -438 -2 0
-439 438 0
-439 2 0
440 -873 -437 0
-440 873 0
-440 437 0
441 -27 -694 0
-441 27 0
-441 694 0
442 -441 -839 0
-442 441 0
-442 839 0
443 -874 -440 0
-443 874 0
-443 440 0
444 -289 -694 0
-444 289 0
-444 694 0
445 -875 -443 0
-445 875 0
-445 443 0
446 -19 -1 0
-446 19 0
-446 1 0
447 -446 -31 0
-447 446 0
-447 31 0
448 -876 -445 0
-448 876 0
-448 445 0
449 -46 -742 0
-449 46 0
-449 742 0
450 -449 -733 0
-450 449 0
-450 733 0
451 -877 -448 0
-451 877 0
-451 448 0
452 -757 -1 0
-452 757 0
-452 1 0
453 -452 -782 0
-453 452 0
-453 782 0
454 -878 -451 0
-454 878 0
-454 451 0
455 -784 -751 0
-455 784 0
-455 751 0
456 -455 -3 0
-456 455 0
-456 3 0
457 -879 -454 0
-457 879 0
-457 454 0
458 -40 -37 0
-458 40 0
-458 37 0
459 -458 -9 0
-459 458 0
-459 9 0
460 -880 -457 0
-460 880 0
-460 457 0
461 -352 -3 0
-461 352 0
-461 3 0
462 -881 -460 0
-462 881 0
-462 460 0
463 -38 -787 0
-463 38 0
-463 787 0
464 -463 -796 0
-464 463 0
-464 796 0
465 -882 -462 0
-465 882 0
-465 462 0
466 -43 -735 0
-466 43 0
-466 735 0
467 -466 -49 0
-467 466 0
-467 49 0
468 -883 -465 0
-468 883 0
-468 465 0
469 -758 -716 0
-469 758 0
-469 716 0
470 -469 -699 0
-470 469 0
-470 699 0
471 -884 -468 0
-471 884 0
-471 468 0
472 -760 -715 0
-472 760 0
-472 715 0
473 -472 -789 0
-473 472 0
-473 789 0
474 -885 -471 0
-474 885 0
-474 471 0
475 -20 -800 0
-475 20 0
-475 800 0
476 -475 -3 0
-476 475 0
-476 3 0
477 -886 -474 0
-477 886 0
-477 474 0
478 -728 -18 0
-478 728 0
-478 18 0
479 -478 -44 0
-479 478 0
-479 44 0
480 -887 -477 0
-480 887 0
-480 477 0
481 -787 -705 0
-481 787 0
-481 705 0
482 -481 -808 0
-482 481 0
-482 808 0
483 -888 -480 0
-483 888 0
-483 480 0
484 -27 -746 0
-484 27 0
-484 746 0
485 -484 -808 0
-485 484 0
-485 808 0
486 -889 -483 0
-486 889 0
-486 483 0
487 -43 -713 0
-487 43 0
-487 713 0
488 -487 -41 0
-488 487 0
-488 41 0
489 -890 -486 0
-489 890 0
-489 486 0
490 -45 -713 0
-490 45 0
-490 713 0
491 -490 -2 0
-491 490 0
-491 2 0
492 -891 -489 0
-492 891 0
-492 489 0
493 -47 -43 0
-493 47 0
-493 43 0
494 -493 -42 0
-494 493 0
-494 42 0
495 -892 -492 0
-495 892 0
-495 492 0
496 -763 -14 0
-496 763 0
-496 14 0
497 -496 -699 0
-497 496 0
-497 699 0
498 -893 -495 0
-498 893 0
-498 495 0
499 -44 -3 0
-499 44 0
-499 3 0
500 -499 -21 0
-500 499 0
-500 21 0
501 -894 -498 0
-501 894 0
-501 498 0
502 -773 -30 0
-502 773 0
-502 30 0
503 -502 -733 0
-503 502 0
-503 733 0
504 -895 -501 0
-504 895 0
-504 501 0
505 -712 -710 0
-505 712 0
-505 710 0
506 -505 -758 0
-506 505 0
-506 758 0
507 -896 -504 0
-507 896 0
-507 504 0
508 -757 -22 0
-508 757 0
-508 22 0
509 -508 -12 0
-509 508 0
-509 12 0
510 -897 -507 0
-510 897 0
-510 507 0
511 -736 -24 0
-511 736 0
-511 24 0
512 -511 -26 0
-512 511 0
-512 26 0
513 -898 -510 0
-513 898 0
-513 510 0
514 -11 -10 0
-514 11 0
-514 10 0
515 -514 -701 0
-515 514 0
-515 701 0
516 -899 -513 0
-516 899 0
-516 513 0
517 -32 -5 0
-517 32 0
-517 5 0
518 -517 -36 0
-518 517 0
-518 36 0
519 -900 -516 0
-519 900 0
-519 516 0
520 -716 -18 0
-520 716 0
-520 18 0
521 -520 -696 0
-521 520 0
-521 696 0
522 -901 -519 0
-522 901 0
-522 519 0
523 -25 -22 0
-523 25 0
-523 22 0
524 -523 -49 0
-524 523 0
-524 49 0
525 -902 -522 0
-525 902 0
-525 522 0
526 -787 -713 0
-526 787 0
-526 713 0
527 -526 -12 0
-527 526 0
-527 12 0
528 -903 -525 0
-528 903 0
-528 525 0
529 -34 -25 0
-529 34 0
-529 25 0
530 -529 -701 0
-530 529 0
-530 701 0
531 -904 -528 0
-531 904 0
-531 528 0
532 -726 -25 0
-532 726 0
-532 25 0
533 -532 -6 0
-533 532 0
-533 6 0
534 -905 -531 0
-534 905 0
-534 531 0
535 -906 -724 0
-535 906 0
-535 724 0
536 -535 -842 0
-536 535 0
-536 842 0
537 -907 -534 0
-537 907 0
-537 534 0
538 -28 -8 0
-538 28 0
-538 8 0
539 -538 -9 0
-539 538 0
-539 9 0
540 -908 -537 0
-540 908 0
-540 537 0
541 -906 -15 0
-541 906 0
-541 15 0
542 -541 -701 0
-542 541 0
-542 701 0
543 -909 -540 0
-543 909 0
-543 540 0
544 -724 -7 0
-544 724 0
-544 7 0
545 -544 -738 0
-545 544 0
-545 738 0
546 -910 -543 0
-546 910 0
-546 543 0
547 -740 -736 0
-547 740 0
-547 736 0
548 -547 -12 0
-548 547 0
-548 12 0
549 -911 -546 0
-549 911 0
-549 546 0
550 -48 -721 0
-550 48 0
-550 721 0
551 -550 -26 0
-551 550 0
-551 26 0
552 -912 -549 0
-552 912 0
-552 549 0
553 -740 -708 0
-553 740 0
-553 708 0
554 -553 -839 0
-554 553 0
-554 839 0
555 -913 -552 0
-555 913 0
-555 552 0
556 -49 -27 0
-556 49 0
-556 27 0
557 -556 -21 0
-557 556 0
-557 21 0
558 -914 -555 0
-558 914 0
-558 555 0
559 -25 -12 0
-559 25 0
-559 12 0
560 -559 -782 0
-560 559 0
-560 782 0
561 -915 -558 0
-561 915 0
-561 558 0
562 -839 -694 0
-562 839 0
-562 694 0
563 -562 -701 0
-563 562 0
-563 701 0
564 -916 -561 0
-564 916 0
-564 561 0
565 -48 -47 0
-565 48 0
-565 47 0
566 -565 -789 0
-566 565 0
-566 789 0
567 -917 -564 0
-567 917 0
-567 564 0
568 -39 -32 0
-568 39 0
-568 32 0
569 -568 -8 0
-569 568 0
-569 8 0
570 -918 -567 0
-570 918 0
-570 567 0
571 -43 -745 0
-571 43 0
-571 745 0
572 -571 -808 0
-572 571 0
-572 808 0
573 -919 -570 0
-573 919 0
-573 570 0
574 -763 -45 0
-574 763 0
-574 45 0
575 -574 -13 0
-575 574 0
-575 13 0
576 -920 -573 0
-576 920 0
-576 573 0
577 -36 -31 0
-577 36 0
-577 31 0
578 -577 -39 0
-578 577 0
-578 39 0
579 -921 -576 0
-579 921 0
-579 576 0
580 -25 -700 0
-580 25 0
-580 700 0
581 -580 -922 0
-581 580 0
-581 922 0
582 -923 -579 0
-582 923 0
-582 579 0
583 -13 -6 0
-583 13 0
-583 6 0
584 -583 -11 0
-584 583 0
-584 11 0
585 -924 -582 0
-585 924 0
-585 582 0
586 -712 -16 0
-586 712 0
-586 16 0
587 -586 -48 0
-587 586 0
-587 48 0
588 -925 -585 0
-588 925 0
-588 585 0
589 -34 -4 0
-589 34 0
-589 4 0
590 -589 -712 0
-590 589 0
-590 712 0
591 -926 -588 0
-591 926 0
-591 588 0
592 -787 -29 0
-592 787 0
-592 29 0
593 -592 -5 0
-593 592 0
-593 5 0
594 -927 -591 0
-594 927 0
-594 591 0
595 -32 -703 0
-595 32 0
-595 703 0
596 -595 -728 0
-596 595 0
-596 728 0
597 -928 -594 0
-597 928 0
-597 594 0
598 -32 -713 0
-598 32 0
-598 713 0
599 -598 -839 0
-599 598 0
-599 839 0
600 -929 -597 0
-600 929 0
-600 597 0
601 -724 -715 0
-601 724 0
-601 715 0
602 -601 -808 0
-602 601 0
-602 808 0
603 -930 -600 0
-603 930 0
-603 600 0
604 -760 -14 0
-604 760 0
-604 14 0
605 -604 -922 0
-605 604 0
-605 922 0
606 -931 -603 0
-606 931 0
-606 603 0
607 -230 -41 0
-607 230 0
-607 41 0
608 -932 -606 0
-608 932 0
-608 606 0
609 -48 -36 0
-609 48 0
-609 36 0
610 -609 -2 0
-610 609 0
-610 2 0
611 -933 -608 0
-611 933 0
-611 608 0
612 -40 -839 0
-612 40 0
-612 839 0
613 -612 -701 0
-613 612 0
-613 701 0
614 -934 -611 0
-614 934 0
-614 611 0
615 -740 -34 0
-615 740 0
-615 34 0
616 -615 -35 0
-616 615 0
-616 35 0
617 -935 -614 0
-617 935 0
-617 614 0
618 -758 -25 0
-618 758 0
-618 25 0
619 -618 -696 0
-619 618 0
-619 696 0
620 -936 -617 0
-620 936 0
-620 617 0
621 -740 -19 0
-621 740 0
-621 19 0
622 -621 -20 0
-622 621 0
-622 20 0
623 -937 -620 0
-623 937 0
-623 620 0
624 -29 -695 0
-624 29 0
-624 695 0
625 -624 -694 0
-625 624 0
-625 694 0
626 -938 -623 0
-626 938 0
-626 623 0
627 -787 -24 0
-627 787 0
-627 24 0
628 -627 -800 0
-628 627 0
-628 800 0
629 -939 -626 0
-629 939 0
-629 626 0
630 -789 -20 0
-630 789 0
-630 20 0
631 -630 -780 0
-631 630 0
-631 780 0
632 -940 -629 0
-632 940 0
-632 629 0
633 -37 -14 0
-633 37 0
-633 14 0
634 -633 -740 0
-634 633 0
-634 740 0
635 -941 -632 0
-635 941 0
-635 632 0
636 -28 -16 0
-636 28 0
-636 16 0
637 -636 -14 0
-637 636 0
-637 14 0
638 -942 -635 0
-638 942 0
-638 635 0
639 -760 -700 0
-639 760 0
-639 700 0
640 -639 -21 0
-640 639 0
-640 21 0
641 -943 -638 0
-641 943 0
-641 638 0
642 -47 -34 0
-642 47 0
-642 34 0
643 -642 -2 0
-643 642 0
-643 2 0
644 -944 -641 0
-644 944 0
-644 641 0
645 -798 -7 0
-645 798 0
-645 7 0
646 -645 -50 0
-646 645 0
-646 50 0
647 -945 -644 0
-647 945 0
-647 644 0
648 -41 -906 0
-648 41 0
-648 906 0
649 -648 -800 0
-649 648 0
-649 800 0
650 -946 -647 0
-650 946 0
-650 647 0
651 -38 -746 0
-651 38 0
-651 746 0
652 -651 -42 0
-652 651 0
-652 42 0
653 -947 -650 0
-653 947 0
-653 650 0
654 -19 -700 0
-654 19 0
-654 700 0
655 -654 -24 0
-655 654 0
-655 24 0
656 -948 -653 0
-656 948 0
-656 653 0
657 -19 -16 0
-657 19 0
-657 16 0
658 -657 -32 0
-658 657 0
-658 32 0
659 -949 -656 0
-659 949 0
-659 656 0
660 -789 -12 0
-660 789 0
-660 12 0
661 -660 -9 0
-661 660 0
-661 9 0
662 -950 -659 0
-662 950 0
-662 659 0
663 -728 -703 0
-663 728 0
-663 703 0
664 -663 -808 0
-664 663 0
-664 808 0
665 -951 -662 0
-665 951 0
-665 662 0
666 -28 -19 0
-666 28 0
-666 19 0
667 -666 -40 0
-667 666 0
-667 40 0
668 -952 -665 0
-668 952 0
-668 665 0
669 -481 -33 0
-669 481 0
-669 33 0
670 -953 -668 0
-670 953 0
-670 668 0
671 -206 -708 0
-671 206 0
-671 708 0
672 -954 -670 0
-672 954 0
-672 670 0
673 -763 -39 0
-673 763 0
-673 39 0
674 -673 -768 0
-674 673 0
-674 768 0
675 -955 -672 0
-675 955 0
-675 672 0
676 -37 -736 0
-676 37 0
-676 736 0
677 -676 -49 0
-677 676 0
-677 49 0
678 -956 -675 0
-678 956 0
-678 675 0
679 -703 -2 0
-679 703 0
-679 2 0
680 -679 -11 0
-680 679 0
-680 11 0
681 -957 -678 0
-681 957 0
-681 678 0
682 -784 -47 0
-682 784 0
-682 47 0
683 -682 -770 0
-683 682 0
-683 770 0
684 -958 -681 0
-684 958 0
-684 681 0
685 -763 -787 0
-685 763 0
-685 787 0
686 -685 -1 0
-686 685 0
-686 1 0
687 -959 -684 0
-687 959 0
-687 684 0
688 -23 -798 0
-688 23 0
-688 798 0
689 -688 -768 0
-689 688 0
-689 768 0
690 -960 -687 0
-690 960 0
-690 687 0
691 -718 -11 0
-691 718 0
-691 11 0
692 -691 -21 0
-692 691 0
-692 21 0
693 -961 -690 0
-693 961 0
-693 690 0
-694 -2 0
694 2 0
-695 -1 0
695 1 0
-696 -3 0
696 3 0
-697 -54 0
697 54 0
-698 -52 0
698 52 0
-699 -8 0
699 8 0
-700 -7 0
700 7 0
-701 -9 0
701 9 0
-702 -57 0
702 57 0
-703 -4 0
703 4 0
-704 -60 0
704 60 0
-705 -12 0
705 12 0
-706 -63 0
706 63 0
-707 -66 0
707 66 0
-708 -15 0
708 15 0
-709 -69 0
709 69 0
-710 -16 0
710 16 0
-711 -72 0
711 72 0
-712 -17 0
712 17 0
-713 -18 0
713 18 0
-714 -75 0
714 75 0
-715 -20 0
715 20 0
-716 -19 0
716 19 0
-717 -78 0
717 78 0
-718 -23 0
718 23 0
-719 -24 0
719 24 0
-720 -81 0
720 81 0
-721 -14 0
721 14 0
-722 -84 0
722 84 0
-723 -87 0
723 87 0
-724 -28 0
724 28 0
-725 -90 0
725 90 0
-726 -29 0
726 29 0
-727 -93 0
727 93 0
-728 -31 0
728 31 0
-729 -96 0
729 96 0
-730 -99 0
730 99 0
-731 -102 0
731 102 0
-732 -105 0
732 105 0
-733 -35 0
733 35 0
-734 -108 0
734 108 0
-735 -36 0
735 36 0
-736 -25 0
736 25 0
-737 -111 0
737 111 0
-738 -5 0
738 5 0
-739 -114 0
739 114 0
-740 -38 0
740 38 0
-741 -117 0
741 117 0
-742 -32 0
742 32 0
-743 -120 0
743 120 0
-744 -123 0
744 123 0
-745 -40 0
745 40 0
-746 -13 0
746 13 0
-747 -126 0
747 126 0
-748 -129 0
748 129 0
-749 -132 0
749 132 0
-750 -135 0
750 135 0
-751 -33 0
751 33 0
-752 -138 0
752 138 0
-753 -141 0
753 141 0
-754 -144 0
754 144 0
-755 -147 0
755 147 0
-756 -150 0
756 150 0
-757 -45 0
757 45 0
-758 -46 0
758 46 0
-759 -153 0
759 153 0
-760 -37 0
760 37 0
-761 -156 0
761 156 0
-762 -159 0
762 159 0
-763 -47 0
763 47 0
-764 -162 0
764 162 0
-765 -165 0
765 165 0
-766 -168 0
766 168 0
-767 -171 0
767 171 0
-768 -27 0
768 27 0
-769 -174 0
769 174 0
-770 -26 0
770 26 0
-771 -177 0
771 177 0
-772 -180 0
772 180 0
-773 -44 0
773 44 0
-774 -183 0
774 183 0
-775 -186 0
775 186 0
-776 -189 0
776 189 0
-777 -192 0
777 192 0
-778 -195 0
778 195 0
-779 -198 0
779 198 0
-780 -41 0
780 41 0
-781 -201 0
781 201 0
-782 -10 0
782 10 0
-783 -204 0
783 204 0
-784 -48 0
784 48 0
-785 -207 0
785 207 0
-786 -210 0
786 210 0
-787 -30 0
787 30 0
-788 -213 0
788 213 0
-789 -43 0
789 43 0
-790 -216 0
790 216 0
-791 -219 0
791 219 0
-792 -222 0
792 222 0
-793 -225 0
793 225 0
-794 -228 0
794 228 0
-795 -231 0
795 231 0
-796 -42 0
796 42 0
-797 -234 0
797 234 0
-798 -22 0
798 22 0
-799 -237 0
799 237 0
-800 -11 0
800 11 0
-801 -240 0
801 240 0
-802 -243 0
802 243 0
-803 -246 0
803 246 0
-804 -249 0
804 249 0
-805 -252 0
805 252 0
-806 -254 0
806 254 0
-807 -257 0
807 257 0
-808 -21 0
808 21 0
-809 -260 0
809 260 0
-810 -263 0
810 263 0
-811 -266 0
811 266 0
-812 -269 0
812 269 0
-813 -272 0
813 272 0
-814 -275 0
814 275 0
-815 -278 0
815 278 0
-816 -281 0
816 281 0
-817 -284 0
817 284 0
-818 -287 0
818 287 0
-819 -290 0
819 290 0
-820 -293 0
820 293 0
-821 -296 0
821 296 0
-822 -299 0
822 299 0
-823 -302 0
823 302 0
-824 -305 0
824 305 0
-825 -308 0
825 308 0
-826 -311 0
826 311 0
-827 -314 0
827 314 0
-828 -316 0
828 316 0
-829 -319 0
829 319 0
-830 -322 0
830 322 0
-831 -325 0
831 325 0
-832 -327 0
832 327 0
-833 -330 0
833 330 0
-834 -333 0
834 333 0
-835 -336 0
835 336 0
-836 -339 0
836 339 0
-837 -342 0
837 342 0
-838 -344 0
838 344 0
-839 -6 0
839 6 0
-840 -347 0
840 347 0
-841 -350 0
841 350 0
-842 -50 0
842 50 0
-843 -353 0
843 353 0
-844 -356 0
844 356 0
-845 -359 0
845 359 0
-846 -362 0
846 362 0
-847 -365 0
847 365 0
-848 -368 0
848 368 0
-849 -371 0
849 371 0
-850 -374 0
850 374 0
-851 -377 0
851 377 0
-852 -380 0
852 380 0
-853 -383 0
853 383 0
-854 -386 0
854 386 0
-855 -389 0
855 389 0
-856 -392 0
856 392 0
-857 -395 0
857 395 0
-858 -398 0
858 398 0
-859 -49 0
859 49 0
-860 -401 0
860 401 0
-861 -404 0
861 404 0
-862 -407 0
862 407 0
-863 -410 0
863 410 0
-864 -413 0
864 413 0
-865 -416 0
865 416 0
-866 -419 0
866 419 0
-867 -422 0
867 422 0
-868 -425 0
868 425 0
-869 -427 0
869 427 0
-870 -430 0
870 430 0
-871 -433 0
871 433 0
-872 -436 0
872 436 0
-873 -439 0
873 439 0
-874 -442 0
874 442 0
-875 -444 0
875 444 0
-876 -447 0
876 447 0
-877 -450 0
877 450 0
-878 -453 0
878 453 0
-879 -456 0
879 456 0
-880 -459 0
880 459 0
-881 -461 0
881 461 0
-882 -464 0
882 464 0
-883 -467 0
883 467 0
-884 -470 0
884 470 0
-885 -473 0
885 473 0
-886 -476 0
886 476 0
-887 -479 0
887 479 0
-888 -482 0
888 482 0
-889 -485 0
889 485 0
-890 -488 0
890 488 0
-891 -491 0
891 491 0
-892 -494 0
892 494 0
-893 -497 0
893 497 0
-894 -500 0
894 500 0
-895 -503 0
895 503 0
-896 -506 0
896 506 0
-897 -509 0
897 509 0
-898 -512 0
898 512 0
-899 -515 0
899 515 0
-900 -518 0
900 518 0
-901 -521 0
901 521 0
-902 -524 0
902 524 0
-903 -527 0
903 527 0
-904 -530 0
904 530 0
-905 -533 0
905 533 0
-906 -34 0
906 34 0
-907 -536 0
907 536 0
-908 -539 0
908 539 0
-909 -542 0
909 542 0
-910 -545 0
910 545 0
-911 -548 0
911 548 0
-912 -551 0
912 551 0
-913 -554 0
913 554 0
-914 -557 0
914 557 0
-915 -560 0
915 560 0
-916 -563 0
916 563 0
-917 -566 0
917 566 0
-918 -569 0
918 569 0
-919 -572 0
919 572 0
-920 -575 0
920 575 0
-921 -578 0
921 578 0
-922 -39 0
922 39 0
-923 -581 0
923 581 0
-924 -584 0
924 584 0
-925 -587 0
925 587 0
-926 -590 0
926 590 0
-927 -593 0
927 593 0
-928 -596 0
928 596 0
-929 -599 0
929 599 0
-930 -602 0
930 602 0
-931 -605 0
931 605 0
-932 -607 0
932 607 0
-933 -610 0
933 610 0
-934 -613 0
934 613 0
-935 -616 0
935 616 0
-936 -619 0
936 619 0
-937 -622 0
937 622 0
-938 -625 0
938 625 0
-939 -628 0
939 628 0
-940 -631 0
940 631 0
-941 -634 0
941 634 0
-942 -637 0
942 637 0
-943 -640 0
943 640 0
-944 -643 0
944 643 0
-945 -646 0
945 646 0
-946 -649 0
946 649 0
-947 -652 0
947 652 0
-948 -655 0
948 655 0
-949 -658 0
949 658 0
-950 -661 0
950 661 0
-951 -664 0
951 664 0
-952 -667 0
952 667 0
-953 -669 0
953 669 0
-954 -671 0
954 671 0
-955 -674 0
955 674 0
-956 -677 0
956 677 0
-957 -680 0
957 680 0
-958 -683 0
958 683 0
-959 -686 0
959 686 0
-960 -689 0
960 689 0
-961 -692 0
961 692 0
693 0
